<?xml version = "1.0" standalone="yes"?>
<!-- This file has been generated by DOcplex version 2.23.222  -->
<CPLEXSolution version="1.0">
 <header
   problemName="CVRP"
   objectiveValue="4714.97"
  />
 <variables>
  <variable name="x_0_2" index="1" value="1.00000"/>
  <variable name="x_0_4" index="3" value="1.00000"/>
  <variable name="x_0_5" index="4" value="1.00000"/>
  <variable name="x_0_7" index="6" value="1.00000"/>
  <variable name="x_1_6" index="15" value="1.00000"/>
  <variable name="x_2_1" index="21" value="1.00000"/>
  <variable name="x_3_0" index="30" value="1.00000"/>
  <variable name="x_4_3" index="43" value="1.00000"/>
  <variable name="x_5_8" index="57" value="1.00000"/>
  <variable name="x_6_0" index="60" value="1.00000"/>
  <variable name="x_7_9" index="78" value="1.00000"/>
  <variable name="x_8_10" index="89" value="1.00000"/>
  <variable name="x_9_0" index="90" value="1.00000"/>
  <variable name="x_10_0" index="100" value="1.00000"/>
  <variable name="u_1" index="110" value="27.00000"/>
  <variable name="u_2" index="111" value="10.00000"/>
  <variable name="u_3" index="112" value="60.00000"/>
  <variable name="u_4" index="113" value="16.00000"/>
  <variable name="u_5" index="114" value="43.00000"/>
  <variable name="u_6" index="115" value="51.00000"/>
  <variable name="u_7" index="116" value="49.00000"/>
  <variable name="u_8" index="117" value="52.00000"/>
  <variable name="u_9" index="118" value="65.00000"/>
  <variable name="u_10" index="119" value="67.00000"/>
 </variables>
</CPLEXSolution>
